JulietBench/Juliet_Based_Patch_Bench/FFmpeg/CWE-189-Numeric-Errors/CVE_2013_2495_3dbc0ff9c3e6f6e0d08ea3d42cb33761bae084ba/Resultiff_read_header_Snippet_patch2NEQ.smt2
; benchmark generated from python API
(set-info :status unknown)
(declare-fun R () (_ BitVec 32))
(declare-fun rdi () (_ BitVec 64))
(assert
 (let (($x17 (and (distinct (_ bv41 32) R) true)))
 (let ((?x6 ((_ extract 31 0) rdi)))
 (let ((?x13 (bvadd (_ bv41 32) ?x6)))
 (let (($x32 (and (distinct R ?x13) true)))
 (let (($x31 (and $x32 $x17)))
 (let (($x25 (= (_ bv41 32) R)))
 (let (($x16 (= R ?x13)))
 (let (($x23 (and $x16 $x25)))
 (let (($x30 (or $x23 $x31)))
 (not $x30)))))))))))
(check-sat)
